   22
          4          1          4
          6          5         10
          5         11         15
          3         16         18
          4         19         22
          1         23         23
          2         24         25
          3         26         28
          2         29         30
          1         31         31
          1         32         32
          1         33         33
          1         34         34
          1         35         35
          1         36         36
          2         37         38
          1         39         39
          1         40         40
          1         41         41
          1         42         42
          1         43         43
          1         44         44
